(set-info :smt-lib-version 2.6)
(set-logic QF_NIA)
(set-info :source |
Generated by: Cristina Borralleras, Daniel Larraz, Albert Oliveras, Enric Rodriguez-Carbonell, Albert Rubio
Generated on: 2017-04-27
Generator: VeryMax
Application: Termination proving
Target solver: barcelogic
|)
(set-info :license "https://creativecommons.org/licenses/by/4.0/")
(set-info :category "industrial")
(set-info :status sat)
(declare-fun Nl5main_id1 () Int)
(declare-fun Nl5main_maxId1 () Int)
(declare-fun Nl5main_tmp1 () Int)
(declare-fun Nl5main_id2 () Int)
(declare-fun Nl5main_maxId2 () Int)
(declare-fun Nl5main_tmp2 () Int)
(declare-fun Nl5main_id3 () Int)
(declare-fun Nl5main_maxId3 () Int)
(declare-fun Nl5main_tmp3 () Int)
(declare-fun lam0n0 () Int)
(declare-fun lam0n1 () Int)
(declare-fun lam0n2 () Int)
(declare-fun lam0n4 () Int)
(declare-fun lam0n5 () Int)
(declare-fun lam0n6 () Int)
(declare-fun lam0n3 () Int)
(declare-fun Nl5CT1 () Int)
(declare-fun Nl5CT2 () Int)
(declare-fun Nl5CT3 () Int)
(declare-fun lam1n0 () Int)
(declare-fun lam1n1 () Int)
(declare-fun lam1n2 () Int)
(declare-fun lam1n4 () Int)
(declare-fun lam1n5 () Int)
(declare-fun lam1n6 () Int)
(declare-fun lam1n3 () Int)
(declare-fun lam2n0 () Int)
(declare-fun lam2n1 () Int)
(declare-fun lam2n2 () Int)
(declare-fun lam2n4 () Int)
(declare-fun lam2n5 () Int)
(declare-fun lam2n6 () Int)
(declare-fun lam2n3 () Int)
(declare-fun lam3n0 () Int)
(declare-fun lam3n1 () Int)
(declare-fun lam3n2 () Int)
(declare-fun lam3n4 () Int)
(declare-fun lam3n5 () Int)
(declare-fun lam3n6 () Int)
(declare-fun lam3n3 () Int)
(declare-fun lam4n0 () Int)
(declare-fun lam4n1 () Int)
(declare-fun lam4n2 () Int)
(declare-fun lam4n4 () Int)
(declare-fun lam4n5 () Int)
(declare-fun lam4n6 () Int)
(declare-fun lam4n3 () Int)
(declare-fun lam5n0 () Int)
(declare-fun lam5n1 () Int)
(declare-fun lam5n2 () Int)
(declare-fun lam5n4 () Int)
(declare-fun lam5n5 () Int)
(declare-fun lam5n6 () Int)
(declare-fun lam5n3 () Int)
(declare-fun lam6n0 () Int)
(declare-fun lam6n1 () Int)
(declare-fun lam6n2 () Int)
(declare-fun lam6n4 () Int)
(declare-fun lam6n5 () Int)
(declare-fun lam6n6 () Int)
(declare-fun lam6n3 () Int)
(declare-fun lam7n0 () Int)
(declare-fun lam7n1 () Int)
(declare-fun lam7n2 () Int)
(declare-fun lam7n4 () Int)
(declare-fun lam7n5 () Int)
(declare-fun lam7n6 () Int)
(declare-fun lam7n3 () Int)
(declare-fun lam8n0 () Int)
(declare-fun lam8n1 () Int)
(declare-fun lam8n2 () Int)
(declare-fun lam8n4 () Int)
(declare-fun lam8n5 () Int)
(declare-fun lam8n6 () Int)
(declare-fun lam8n3 () Int)
(declare-fun lam9n0 () Int)
(declare-fun lam9n1 () Int)
(declare-fun lam9n2 () Int)
(declare-fun lam9n4 () Int)
(declare-fun lam9n5 () Int)
(declare-fun lam9n6 () Int)
(declare-fun lam9n3 () Int)
(declare-fun lam10n0 () Int)
(declare-fun lam10n1 () Int)
(declare-fun lam10n2 () Int)
(declare-fun lam10n4 () Int)
(declare-fun lam10n5 () Int)
(declare-fun lam10n6 () Int)
(declare-fun lam10n3 () Int)
(declare-fun lam11n0 () Int)
(declare-fun lam11n1 () Int)
(declare-fun lam11n2 () Int)
(declare-fun lam11n4 () Int)
(declare-fun lam11n5 () Int)
(declare-fun lam11n6 () Int)
(declare-fun lam11n3 () Int)
(declare-fun lam12n0 () Int)
(declare-fun lam12n1 () Int)
(declare-fun lam12n2 () Int)
(declare-fun lam12n3 () Int)
(declare-fun lam13n0 () Int)
(declare-fun lam13n1 () Int)
(declare-fun lam13n2 () Int)
(declare-fun lam13n3 () Int)
(declare-fun lam14n0 () Int)
(declare-fun lam14n1 () Int)
(declare-fun lam14n2 () Int)
(declare-fun lam14n3 () Int)
(declare-fun undef4 () Int)
(declare-fun undef5 () Int)
(declare-fun main_id () Int)
(declare-fun main_maxId () Int)
(declare-fun lam18n0 () Int)
(declare-fun lam18n1 () Int)
(declare-fun lam18n2 () Int)
(declare-fun lam18n4 () Int)
(declare-fun lam18n5 () Int)
(declare-fun lam18n6 () Int)
(declare-fun lam18n3 () Int)
(declare-fun RFN1_CT () Int)
(declare-fun RFN1_main_tmp () Int)
(declare-fun RFN1_main_id () Int)
(declare-fun RFN1_main_maxId () Int)
(declare-fun lam22n0 () Int)
(declare-fun lam22n1 () Int)
(declare-fun lam22n2 () Int)
(declare-fun lam22n4 () Int)
(declare-fun lam22n5 () Int)
(declare-fun lam22n6 () Int)
(declare-fun lam22n3 () Int)
(declare-fun lam26n0 () Int)
(declare-fun lam26n1 () Int)
(declare-fun lam26n2 () Int)
(declare-fun lam26n4 () Int)
(declare-fun lam26n5 () Int)
(declare-fun lam26n6 () Int)
(declare-fun lam26n3 () Int)
(declare-fun lam16n0 () Int)
(declare-fun lam16n1 () Int)
(declare-fun lam16n2 () Int)
(declare-fun lam16n4 () Int)
(declare-fun lam16n5 () Int)
(declare-fun lam16n6 () Int)
(declare-fun lam16n3 () Int)
(declare-fun lam17n0 () Int)
(declare-fun lam17n1 () Int)
(declare-fun lam17n2 () Int)
(declare-fun lam17n4 () Int)
(declare-fun lam17n5 () Int)
(declare-fun lam17n6 () Int)
(declare-fun lam17n3 () Int)
(declare-fun lam20n0 () Int)
(declare-fun lam20n1 () Int)
(declare-fun lam20n2 () Int)
(declare-fun lam20n4 () Int)
(declare-fun lam20n5 () Int)
(declare-fun lam20n6 () Int)
(declare-fun lam20n3 () Int)
(declare-fun lam21n0 () Int)
(declare-fun lam21n1 () Int)
(declare-fun lam21n2 () Int)
(declare-fun lam21n4 () Int)
(declare-fun lam21n5 () Int)
(declare-fun lam21n6 () Int)
(declare-fun lam21n3 () Int)
(declare-fun lam24n0 () Int)
(declare-fun lam24n1 () Int)
(declare-fun lam24n2 () Int)
(declare-fun lam24n4 () Int)
(declare-fun lam24n5 () Int)
(declare-fun lam24n6 () Int)
(declare-fun lam24n3 () Int)
(declare-fun lam25n0 () Int)
(declare-fun lam25n1 () Int)
(declare-fun lam25n2 () Int)
(declare-fun lam25n4 () Int)
(declare-fun lam25n5 () Int)
(declare-fun lam25n6 () Int)
(declare-fun lam25n3 () Int)
(declare-fun lam15n0 () Int)
(declare-fun lam15n1 () Int)
(declare-fun lam15n2 () Int)
(declare-fun lam15n4 () Int)
(declare-fun lam15n5 () Int)
(declare-fun lam15n6 () Int)
(declare-fun lam15n3 () Int)
(declare-fun lam19n0 () Int)
(declare-fun lam19n1 () Int)
(declare-fun lam19n2 () Int)
(declare-fun lam19n4 () Int)
(declare-fun lam19n5 () Int)
(declare-fun lam19n6 () Int)
(declare-fun lam19n3 () Int)
(declare-fun lam23n0 () Int)
(declare-fun lam23n1 () Int)
(declare-fun lam23n2 () Int)
(declare-fun lam23n4 () Int)
(declare-fun lam23n5 () Int)
(declare-fun lam23n6 () Int)
(declare-fun lam23n3 () Int)
(assert ( and ( <= ( - 1 ) Nl5main_id1 ) ( <= Nl5main_id1 1 ) ( <= ( - 1 ) Nl5main_maxId1 ) ( <= Nl5main_maxId1 1 ) ( <= ( - 1 ) Nl5main_tmp1 ) ( <= Nl5main_tmp1 1 ) ( <= ( - 1 ) Nl5main_id2 ) ( <= Nl5main_id2 1 ) ( <= ( - 1 ) Nl5main_maxId2 ) ( <= Nl5main_maxId2 1 ) ( <= ( - 1 ) Nl5main_tmp2 ) ( <= Nl5main_tmp2 1 ) ( <= ( - 1 ) Nl5main_id3 ) ( <= Nl5main_id3 1 ) ( <= ( - 1 ) Nl5main_maxId3 ) ( <= Nl5main_maxId3 1 ) ( <= ( - 1 ) Nl5main_tmp3 ) ( <= Nl5main_tmp3 1 ) ))
(assert ( or ( and ( >= lam0n0 0 ) ( >= lam0n1 0 ) ( >= lam0n2 0 ) ( >= lam0n4 0 ) ( >= lam0n5 0 ) ( >= lam0n6 0 ) ( > ( + ( * 1 lam0n1 ) ( * ( - 1 ) lam0n2 ) ( * ( - 1 ) lam0n3 ) ( * Nl5CT1 lam0n4 ) ( * Nl5CT2 lam0n5 ) ( * Nl5CT3 lam0n6 ) ( - 1 ) ) 0 ) ( = ( + ( * ( - 1 ) lam0n1 ) ( * 1 lam0n2 ) ( * Nl5main_id1 lam0n4 ) ( * Nl5main_id2 lam0n5 ) ( * Nl5main_id3 lam0n6 ) ) 0 ) ( = ( + ( * ( - 1 ) lam0n0 ) ( * ( - 1 ) lam0n2 ) ( * Nl5main_maxId1 lam0n4 ) ( * Nl5main_maxId2 lam0n5 ) ( * Nl5main_maxId3 lam0n6 ) ) 0 ) ( = ( + ( * 1 lam0n0 ) ( * 1 lam0n1 ) ( * Nl5main_tmp1 lam0n4 ) ( * Nl5main_tmp2 lam0n5 ) ( * Nl5main_tmp3 lam0n6 ) ) 0 ) ( = ( * 1 lam0n3 ) 0 ) ) ( and ( >= lam1n0 0 ) ( >= lam1n1 0 ) ( >= lam1n2 0 ) ( >= lam1n4 0 ) ( >= lam1n5 0 ) ( >= lam1n6 0 ) ( > ( + ( * 1 lam1n1 ) ( * ( - 1 ) lam1n2 ) ( * ( - 1 ) lam1n3 ) ( * Nl5CT1 lam1n4 ) ( * Nl5CT2 lam1n5 ) ( * Nl5CT3 lam1n6 ) ( - 1 ( + Nl5CT1 ( * Nl5main_tmp1 1 ) ) ) ) 0 ) ( = ( + ( * ( - 1 ) lam1n1 ) ( * 1 lam1n2 ) ( * Nl5main_id1 lam1n4 ) ( * Nl5main_id2 lam1n5 ) ( * Nl5main_id3 lam1n6 ) ( - ( + 0 Nl5main_id1 ) ) ) 0 ) ( = ( + ( * ( - 1 ) lam1n0 ) ( * ( - 1 ) lam1n2 ) ( * Nl5main_maxId1 lam1n4 ) ( * Nl5main_maxId2 lam1n5 ) ( * Nl5main_maxId3 lam1n6 ) ( - ( + 0 Nl5main_maxId1 ) ) ) 0 ) ( = ( + ( * 1 lam1n0 ) ( * 1 lam1n1 ) ( * Nl5main_tmp1 lam1n4 ) ( * Nl5main_tmp2 lam1n5 ) ( * Nl5main_tmp3 lam1n6 ) ( - ( + 0 ( * Nl5main_tmp1 1 ) ) ) ) 0 ) ( = ( * 1 lam1n3 ) 0 ) ) ))
(assert ( or ( and ( >= lam0n0 0 ) ( >= lam0n1 0 ) ( >= lam0n2 0 ) ( >= lam0n4 0 ) ( >= lam0n5 0 ) ( >= lam0n6 0 ) ( > ( + ( * 1 lam0n1 ) ( * ( - 1 ) lam0n2 ) ( * ( - 1 ) lam0n3 ) ( * Nl5CT1 lam0n4 ) ( * Nl5CT2 lam0n5 ) ( * Nl5CT3 lam0n6 ) ( - 1 ) ) 0 ) ( = ( + ( * ( - 1 ) lam0n1 ) ( * 1 lam0n2 ) ( * Nl5main_id1 lam0n4 ) ( * Nl5main_id2 lam0n5 ) ( * Nl5main_id3 lam0n6 ) ) 0 ) ( = ( + ( * ( - 1 ) lam0n0 ) ( * ( - 1 ) lam0n2 ) ( * Nl5main_maxId1 lam0n4 ) ( * Nl5main_maxId2 lam0n5 ) ( * Nl5main_maxId3 lam0n6 ) ) 0 ) ( = ( + ( * 1 lam0n0 ) ( * 1 lam0n1 ) ( * Nl5main_tmp1 lam0n4 ) ( * Nl5main_tmp2 lam0n5 ) ( * Nl5main_tmp3 lam0n6 ) ) 0 ) ( = ( * 1 lam0n3 ) 0 ) ) ( and ( >= lam2n0 0 ) ( >= lam2n1 0 ) ( >= lam2n2 0 ) ( >= lam2n4 0 ) ( >= lam2n5 0 ) ( >= lam2n6 0 ) ( > ( + ( * 1 lam2n1 ) ( * ( - 1 ) lam2n2 ) ( * ( - 1 ) lam2n3 ) ( * Nl5CT1 lam2n4 ) ( * Nl5CT2 lam2n5 ) ( * Nl5CT3 lam2n6 ) ( - 1 ( + Nl5CT2 ( * Nl5main_tmp2 1 ) ) ) ) 0 ) ( = ( + ( * ( - 1 ) lam2n1 ) ( * 1 lam2n2 ) ( * Nl5main_id1 lam2n4 ) ( * Nl5main_id2 lam2n5 ) ( * Nl5main_id3 lam2n6 ) ( - ( + 0 Nl5main_id2 ) ) ) 0 ) ( = ( + ( * ( - 1 ) lam2n0 ) ( * ( - 1 ) lam2n2 ) ( * Nl5main_maxId1 lam2n4 ) ( * Nl5main_maxId2 lam2n5 ) ( * Nl5main_maxId3 lam2n6 ) ( - ( + 0 Nl5main_maxId2 ) ) ) 0 ) ( = ( + ( * 1 lam2n0 ) ( * 1 lam2n1 ) ( * Nl5main_tmp1 lam2n4 ) ( * Nl5main_tmp2 lam2n5 ) ( * Nl5main_tmp3 lam2n6 ) ( - ( + 0 ( * Nl5main_tmp2 1 ) ) ) ) 0 ) ( = ( * 1 lam2n3 ) 0 ) ) ))
(assert ( or ( and ( >= lam0n0 0 ) ( >= lam0n1 0 ) ( >= lam0n2 0 ) ( >= lam0n4 0 ) ( >= lam0n5 0 ) ( >= lam0n6 0 ) ( > ( + ( * 1 lam0n1 ) ( * ( - 1 ) lam0n2 ) ( * ( - 1 ) lam0n3 ) ( * Nl5CT1 lam0n4 ) ( * Nl5CT2 lam0n5 ) ( * Nl5CT3 lam0n6 ) ( - 1 ) ) 0 ) ( = ( + ( * ( - 1 ) lam0n1 ) ( * 1 lam0n2 ) ( * Nl5main_id1 lam0n4 ) ( * Nl5main_id2 lam0n5 ) ( * Nl5main_id3 lam0n6 ) ) 0 ) ( = ( + ( * ( - 1 ) lam0n0 ) ( * ( - 1 ) lam0n2 ) ( * Nl5main_maxId1 lam0n4 ) ( * Nl5main_maxId2 lam0n5 ) ( * Nl5main_maxId3 lam0n6 ) ) 0 ) ( = ( + ( * 1 lam0n0 ) ( * 1 lam0n1 ) ( * Nl5main_tmp1 lam0n4 ) ( * Nl5main_tmp2 lam0n5 ) ( * Nl5main_tmp3 lam0n6 ) ) 0 ) ( = ( * 1 lam0n3 ) 0 ) ) ( and ( >= lam3n0 0 ) ( >= lam3n1 0 ) ( >= lam3n2 0 ) ( >= lam3n4 0 ) ( >= lam3n5 0 ) ( >= lam3n6 0 ) ( > ( + ( * 1 lam3n1 ) ( * ( - 1 ) lam3n2 ) ( * ( - 1 ) lam3n3 ) ( * Nl5CT1 lam3n4 ) ( * Nl5CT2 lam3n5 ) ( * Nl5CT3 lam3n6 ) ( - 1 ( + Nl5CT3 ( * Nl5main_tmp3 1 ) ) ) ) 0 ) ( = ( + ( * ( - 1 ) lam3n1 ) ( * 1 lam3n2 ) ( * Nl5main_id1 lam3n4 ) ( * Nl5main_id2 lam3n5 ) ( * Nl5main_id3 lam3n6 ) ( - ( + 0 Nl5main_id3 ) ) ) 0 ) ( = ( + ( * ( - 1 ) lam3n0 ) ( * ( - 1 ) lam3n2 ) ( * Nl5main_maxId1 lam3n4 ) ( * Nl5main_maxId2 lam3n5 ) ( * Nl5main_maxId3 lam3n6 ) ( - ( + 0 Nl5main_maxId3 ) ) ) 0 ) ( = ( + ( * 1 lam3n0 ) ( * 1 lam3n1 ) ( * Nl5main_tmp1 lam3n4 ) ( * Nl5main_tmp2 lam3n5 ) ( * Nl5main_tmp3 lam3n6 ) ( - ( + 0 ( * Nl5main_tmp3 1 ) ) ) ) 0 ) ( = ( * 1 lam3n3 ) 0 ) ) ))
(assert ( or ( and ( >= lam4n0 0 ) ( >= lam4n1 0 ) ( >= lam4n2 0 ) ( >= lam4n4 0 ) ( >= lam4n5 0 ) ( >= lam4n6 0 ) ( > ( + ( * 1 lam4n1 ) ( * ( - 1 ) lam4n2 ) ( * ( - 1 ) lam4n3 ) ( * Nl5CT1 lam4n4 ) ( * Nl5CT2 lam4n5 ) ( * Nl5CT3 lam4n6 ) ( - 1 ) ) 0 ) ( = ( + ( * 1 lam4n1 ) ( * 1 lam4n2 ) ( * Nl5main_id1 lam4n4 ) ( * Nl5main_id2 lam4n5 ) ( * Nl5main_id3 lam4n6 ) ) 0 ) ( = ( + ( * ( - 1 ) lam4n0 ) ( * ( - 1 ) lam4n2 ) ( * Nl5main_maxId1 lam4n4 ) ( * Nl5main_maxId2 lam4n5 ) ( * Nl5main_maxId3 lam4n6 ) ) 0 ) ( = ( + ( * 1 lam4n0 ) ( * ( - 1 ) lam4n1 ) ( * Nl5main_tmp1 lam4n4 ) ( * Nl5main_tmp2 lam4n5 ) ( * Nl5main_tmp3 lam4n6 ) ) 0 ) ( = ( * 1 lam4n3 ) 0 ) ) ( and ( >= lam5n0 0 ) ( >= lam5n1 0 ) ( >= lam5n2 0 ) ( >= lam5n4 0 ) ( >= lam5n5 0 ) ( >= lam5n6 0 ) ( > ( + ( * 1 lam5n1 ) ( * ( - 1 ) lam5n2 ) ( * ( - 1 ) lam5n3 ) ( * Nl5CT1 lam5n4 ) ( * Nl5CT2 lam5n5 ) ( * Nl5CT3 lam5n6 ) ( - 1 ( + Nl5CT1 ( * Nl5main_tmp1 1 ) ) ) ) 0 ) ( = ( + ( * 1 lam5n1 ) ( * 1 lam5n2 ) ( * Nl5main_id1 lam5n4 ) ( * Nl5main_id2 lam5n5 ) ( * Nl5main_id3 lam5n6 ) ( - ( + 0 Nl5main_id1 ) ) ) 0 ) ( = ( + ( * ( - 1 ) lam5n0 ) ( * ( - 1 ) lam5n2 ) ( * Nl5main_maxId1 lam5n4 ) ( * Nl5main_maxId2 lam5n5 ) ( * Nl5main_maxId3 lam5n6 ) ( - ( + 0 Nl5main_maxId1 ) ) ) 0 ) ( = ( + ( * 1 lam5n0 ) ( * ( - 1 ) lam5n1 ) ( * Nl5main_tmp1 lam5n4 ) ( * Nl5main_tmp2 lam5n5 ) ( * Nl5main_tmp3 lam5n6 ) ( - ( + 0 ( * Nl5main_tmp1 1 ) ) ) ) 0 ) ( = ( * 1 lam5n3 ) 0 ) ) ))
(assert ( or ( and ( >= lam4n0 0 ) ( >= lam4n1 0 ) ( >= lam4n2 0 ) ( >= lam4n4 0 ) ( >= lam4n5 0 ) ( >= lam4n6 0 ) ( > ( + ( * 1 lam4n1 ) ( * ( - 1 ) lam4n2 ) ( * ( - 1 ) lam4n3 ) ( * Nl5CT1 lam4n4 ) ( * Nl5CT2 lam4n5 ) ( * Nl5CT3 lam4n6 ) ( - 1 ) ) 0 ) ( = ( + ( * 1 lam4n1 ) ( * 1 lam4n2 ) ( * Nl5main_id1 lam4n4 ) ( * Nl5main_id2 lam4n5 ) ( * Nl5main_id3 lam4n6 ) ) 0 ) ( = ( + ( * ( - 1 ) lam4n0 ) ( * ( - 1 ) lam4n2 ) ( * Nl5main_maxId1 lam4n4 ) ( * Nl5main_maxId2 lam4n5 ) ( * Nl5main_maxId3 lam4n6 ) ) 0 ) ( = ( + ( * 1 lam4n0 ) ( * ( - 1 ) lam4n1 ) ( * Nl5main_tmp1 lam4n4 ) ( * Nl5main_tmp2 lam4n5 ) ( * Nl5main_tmp3 lam4n6 ) ) 0 ) ( = ( * 1 lam4n3 ) 0 ) ) ( and ( >= lam6n0 0 ) ( >= lam6n1 0 ) ( >= lam6n2 0 ) ( >= lam6n4 0 ) ( >= lam6n5 0 ) ( >= lam6n6 0 ) ( > ( + ( * 1 lam6n1 ) ( * ( - 1 ) lam6n2 ) ( * ( - 1 ) lam6n3 ) ( * Nl5CT1 lam6n4 ) ( * Nl5CT2 lam6n5 ) ( * Nl5CT3 lam6n6 ) ( - 1 ( + Nl5CT2 ( * Nl5main_tmp2 1 ) ) ) ) 0 ) ( = ( + ( * 1 lam6n1 ) ( * 1 lam6n2 ) ( * Nl5main_id1 lam6n4 ) ( * Nl5main_id2 lam6n5 ) ( * Nl5main_id3 lam6n6 ) ( - ( + 0 Nl5main_id2 ) ) ) 0 ) ( = ( + ( * ( - 1 ) lam6n0 ) ( * ( - 1 ) lam6n2 ) ( * Nl5main_maxId1 lam6n4 ) ( * Nl5main_maxId2 lam6n5 ) ( * Nl5main_maxId3 lam6n6 ) ( - ( + 0 Nl5main_maxId2 ) ) ) 0 ) ( = ( + ( * 1 lam6n0 ) ( * ( - 1 ) lam6n1 ) ( * Nl5main_tmp1 lam6n4 ) ( * Nl5main_tmp2 lam6n5 ) ( * Nl5main_tmp3 lam6n6 ) ( - ( + 0 ( * Nl5main_tmp2 1 ) ) ) ) 0 ) ( = ( * 1 lam6n3 ) 0 ) ) ))
(assert ( or ( and ( >= lam4n0 0 ) ( >= lam4n1 0 ) ( >= lam4n2 0 ) ( >= lam4n4 0 ) ( >= lam4n5 0 ) ( >= lam4n6 0 ) ( > ( + ( * 1 lam4n1 ) ( * ( - 1 ) lam4n2 ) ( * ( - 1 ) lam4n3 ) ( * Nl5CT1 lam4n4 ) ( * Nl5CT2 lam4n5 ) ( * Nl5CT3 lam4n6 ) ( - 1 ) ) 0 ) ( = ( + ( * 1 lam4n1 ) ( * 1 lam4n2 ) ( * Nl5main_id1 lam4n4 ) ( * Nl5main_id2 lam4n5 ) ( * Nl5main_id3 lam4n6 ) ) 0 ) ( = ( + ( * ( - 1 ) lam4n0 ) ( * ( - 1 ) lam4n2 ) ( * Nl5main_maxId1 lam4n4 ) ( * Nl5main_maxId2 lam4n5 ) ( * Nl5main_maxId3 lam4n6 ) ) 0 ) ( = ( + ( * 1 lam4n0 ) ( * ( - 1 ) lam4n1 ) ( * Nl5main_tmp1 lam4n4 ) ( * Nl5main_tmp2 lam4n5 ) ( * Nl5main_tmp3 lam4n6 ) ) 0 ) ( = ( * 1 lam4n3 ) 0 ) ) ( and ( >= lam7n0 0 ) ( >= lam7n1 0 ) ( >= lam7n2 0 ) ( >= lam7n4 0 ) ( >= lam7n5 0 ) ( >= lam7n6 0 ) ( > ( + ( * 1 lam7n1 ) ( * ( - 1 ) lam7n2 ) ( * ( - 1 ) lam7n3 ) ( * Nl5CT1 lam7n4 ) ( * Nl5CT2 lam7n5 ) ( * Nl5CT3 lam7n6 ) ( - 1 ( + Nl5CT3 ( * Nl5main_tmp3 1 ) ) ) ) 0 ) ( = ( + ( * 1 lam7n1 ) ( * 1 lam7n2 ) ( * Nl5main_id1 lam7n4 ) ( * Nl5main_id2 lam7n5 ) ( * Nl5main_id3 lam7n6 ) ( - ( + 0 Nl5main_id3 ) ) ) 0 ) ( = ( + ( * ( - 1 ) lam7n0 ) ( * ( - 1 ) lam7n2 ) ( * Nl5main_maxId1 lam7n4 ) ( * Nl5main_maxId2 lam7n5 ) ( * Nl5main_maxId3 lam7n6 ) ( - ( + 0 Nl5main_maxId3 ) ) ) 0 ) ( = ( + ( * 1 lam7n0 ) ( * ( - 1 ) lam7n1 ) ( * Nl5main_tmp1 lam7n4 ) ( * Nl5main_tmp2 lam7n5 ) ( * Nl5main_tmp3 lam7n6 ) ( - ( + 0 ( * Nl5main_tmp3 1 ) ) ) ) 0 ) ( = ( * 1 lam7n3 ) 0 ) ) ))
(assert ( or ( and ( >= lam8n0 0 ) ( >= lam8n1 0 ) ( >= lam8n2 0 ) ( >= lam8n4 0 ) ( >= lam8n5 0 ) ( >= lam8n6 0 ) ( > ( + ( * 1 lam8n0 ) ( * 1 lam8n1 ) ( * ( - 1 ) lam8n2 ) ( * ( - 1 ) lam8n3 ) ( * Nl5CT1 lam8n4 ) ( * Nl5CT2 lam8n5 ) ( * Nl5CT3 lam8n6 ) ( - 1 ) ) 0 ) ( = ( + ( * 1 lam8n0 ) ( * 1 lam8n2 ) ( * Nl5main_id1 lam8n4 ) ( * Nl5main_id2 lam8n5 ) ( * Nl5main_id3 lam8n6 ) ) 0 ) ( = ( + ( * 1 lam8n1 ) ( * ( - 1 ) lam8n2 ) ( * Nl5main_maxId1 lam8n4 ) ( * Nl5main_maxId2 lam8n5 ) ( * Nl5main_maxId3 lam8n6 ) ) 0 ) ( = ( + ( * ( - 1 ) lam8n0 ) ( * ( - 1 ) lam8n1 ) ( * Nl5main_tmp1 lam8n4 ) ( * Nl5main_tmp2 lam8n5 ) ( * Nl5main_tmp3 lam8n6 ) ) 0 ) ( = ( * 1 lam8n3 ) 0 ) ) ( and ( >= lam9n0 0 ) ( >= lam9n1 0 ) ( >= lam9n2 0 ) ( >= lam9n4 0 ) ( >= lam9n5 0 ) ( >= lam9n6 0 ) ( > ( + ( * 1 lam9n0 ) ( * 1 lam9n1 ) ( * ( - 1 ) lam9n2 ) ( * ( - 1 ) lam9n3 ) ( * Nl5CT1 lam9n4 ) ( * Nl5CT2 lam9n5 ) ( * Nl5CT3 lam9n6 ) ( - 1 ( + Nl5CT1 ( * Nl5main_tmp1 0 ) ) ) ) 0 ) ( = ( + ( * 1 lam9n0 ) ( * 1 lam9n2 ) ( * Nl5main_id1 lam9n4 ) ( * Nl5main_id2 lam9n5 ) ( * Nl5main_id3 lam9n6 ) ( - ( + 0 Nl5main_id1 ) ) ) 0 ) ( = ( + ( * 1 lam9n1 ) ( * ( - 1 ) lam9n2 ) ( * Nl5main_maxId1 lam9n4 ) ( * Nl5main_maxId2 lam9n5 ) ( * Nl5main_maxId3 lam9n6 ) ( - ( + 0 Nl5main_maxId1 ) ) ) 0 ) ( = ( + ( * ( - 1 ) lam9n0 ) ( * ( - 1 ) lam9n1 ) ( * Nl5main_tmp1 lam9n4 ) ( * Nl5main_tmp2 lam9n5 ) ( * Nl5main_tmp3 lam9n6 ) ) 0 ) ( = ( * 1 lam9n3 ) 0 ) ) ))
(assert ( or ( and ( >= lam8n0 0 ) ( >= lam8n1 0 ) ( >= lam8n2 0 ) ( >= lam8n4 0 ) ( >= lam8n5 0 ) ( >= lam8n6 0 ) ( > ( + ( * 1 lam8n0 ) ( * 1 lam8n1 ) ( * ( - 1 ) lam8n2 ) ( * ( - 1 ) lam8n3 ) ( * Nl5CT1 lam8n4 ) ( * Nl5CT2 lam8n5 ) ( * Nl5CT3 lam8n6 ) ( - 1 ) ) 0 ) ( = ( + ( * 1 lam8n0 ) ( * 1 lam8n2 ) ( * Nl5main_id1 lam8n4 ) ( * Nl5main_id2 lam8n5 ) ( * Nl5main_id3 lam8n6 ) ) 0 ) ( = ( + ( * 1 lam8n1 ) ( * ( - 1 ) lam8n2 ) ( * Nl5main_maxId1 lam8n4 ) ( * Nl5main_maxId2 lam8n5 ) ( * Nl5main_maxId3 lam8n6 ) ) 0 ) ( = ( + ( * ( - 1 ) lam8n0 ) ( * ( - 1 ) lam8n1 ) ( * Nl5main_tmp1 lam8n4 ) ( * Nl5main_tmp2 lam8n5 ) ( * Nl5main_tmp3 lam8n6 ) ) 0 ) ( = ( * 1 lam8n3 ) 0 ) ) ( and ( >= lam10n0 0 ) ( >= lam10n1 0 ) ( >= lam10n2 0 ) ( >= lam10n4 0 ) ( >= lam10n5 0 ) ( >= lam10n6 0 ) ( > ( + ( * 1 lam10n0 ) ( * 1 lam10n1 ) ( * ( - 1 ) lam10n2 ) ( * ( - 1 ) lam10n3 ) ( * Nl5CT1 lam10n4 ) ( * Nl5CT2 lam10n5 ) ( * Nl5CT3 lam10n6 ) ( - 1 ( + Nl5CT2 ( * Nl5main_tmp2 0 ) ) ) ) 0 ) ( = ( + ( * 1 lam10n0 ) ( * 1 lam10n2 ) ( * Nl5main_id1 lam10n4 ) ( * Nl5main_id2 lam10n5 ) ( * Nl5main_id3 lam10n6 ) ( - ( + 0 Nl5main_id2 ) ) ) 0 ) ( = ( + ( * 1 lam10n1 ) ( * ( - 1 ) lam10n2 ) ( * Nl5main_maxId1 lam10n4 ) ( * Nl5main_maxId2 lam10n5 ) ( * Nl5main_maxId3 lam10n6 ) ( - ( + 0 Nl5main_maxId2 ) ) ) 0 ) ( = ( + ( * ( - 1 ) lam10n0 ) ( * ( - 1 ) lam10n1 ) ( * Nl5main_tmp1 lam10n4 ) ( * Nl5main_tmp2 lam10n5 ) ( * Nl5main_tmp3 lam10n6 ) ) 0 ) ( = ( * 1 lam10n3 ) 0 ) ) ))
(assert ( or ( and ( >= lam8n0 0 ) ( >= lam8n1 0 ) ( >= lam8n2 0 ) ( >= lam8n4 0 ) ( >= lam8n5 0 ) ( >= lam8n6 0 ) ( > ( + ( * 1 lam8n0 ) ( * 1 lam8n1 ) ( * ( - 1 ) lam8n2 ) ( * ( - 1 ) lam8n3 ) ( * Nl5CT1 lam8n4 ) ( * Nl5CT2 lam8n5 ) ( * Nl5CT3 lam8n6 ) ( - 1 ) ) 0 ) ( = ( + ( * 1 lam8n0 ) ( * 1 lam8n2 ) ( * Nl5main_id1 lam8n4 ) ( * Nl5main_id2 lam8n5 ) ( * Nl5main_id3 lam8n6 ) ) 0 ) ( = ( + ( * 1 lam8n1 ) ( * ( - 1 ) lam8n2 ) ( * Nl5main_maxId1 lam8n4 ) ( * Nl5main_maxId2 lam8n5 ) ( * Nl5main_maxId3 lam8n6 ) ) 0 ) ( = ( + ( * ( - 1 ) lam8n0 ) ( * ( - 1 ) lam8n1 ) ( * Nl5main_tmp1 lam8n4 ) ( * Nl5main_tmp2 lam8n5 ) ( * Nl5main_tmp3 lam8n6 ) ) 0 ) ( = ( * 1 lam8n3 ) 0 ) ) ( and ( >= lam11n0 0 ) ( >= lam11n1 0 ) ( >= lam11n2 0 ) ( >= lam11n4 0 ) ( >= lam11n5 0 ) ( >= lam11n6 0 ) ( > ( + ( * 1 lam11n0 ) ( * 1 lam11n1 ) ( * ( - 1 ) lam11n2 ) ( * ( - 1 ) lam11n3 ) ( * Nl5CT1 lam11n4 ) ( * Nl5CT2 lam11n5 ) ( * Nl5CT3 lam11n6 ) ( - 1 ( + Nl5CT3 ( * Nl5main_tmp3 0 ) ) ) ) 0 ) ( = ( + ( * 1 lam11n0 ) ( * 1 lam11n2 ) ( * Nl5main_id1 lam11n4 ) ( * Nl5main_id2 lam11n5 ) ( * Nl5main_id3 lam11n6 ) ( - ( + 0 Nl5main_id3 ) ) ) 0 ) ( = ( + ( * 1 lam11n1 ) ( * ( - 1 ) lam11n2 ) ( * Nl5main_maxId1 lam11n4 ) ( * Nl5main_maxId2 lam11n5 ) ( * Nl5main_maxId3 lam11n6 ) ( - ( + 0 Nl5main_maxId3 ) ) ) 0 ) ( = ( + ( * ( - 1 ) lam11n0 ) ( * ( - 1 ) lam11n1 ) ( * Nl5main_tmp1 lam11n4 ) ( * Nl5main_tmp2 lam11n5 ) ( * Nl5main_tmp3 lam11n6 ) ) 0 ) ( = ( * 1 lam11n3 ) 0 ) ) ))
(assert ( and ( <= ( * ( - 1 ) undef4 ) 0 ) ( <= ( + 1 undef4 ( * ( - 1 ) undef5 ) ) 0 ) ( = ( + main_id ( * ( - 1 ) undef4 ) ) 0 ) ( = ( + main_maxId ( * ( - 1 ) undef5 ) ) 0 ) ( <= ( + ( + Nl5CT1 ( * Nl5main_tmp1 1 ) ) ( * ( + 0 Nl5main_id1 ) main_id ) ( * ( + 0 Nl5main_maxId1 ) main_maxId ) ( * ( + 0 ( * Nl5main_tmp1 1 ) ) undef4 ) ) 0 ) ( <= ( + ( + Nl5CT2 ( * Nl5main_tmp2 1 ) ) ( * ( + 0 Nl5main_id2 ) main_id ) ( * ( + 0 Nl5main_maxId2 ) main_maxId ) ( * ( + 0 ( * Nl5main_tmp2 1 ) ) undef4 ) ) 0 ) ( <= ( + ( + Nl5CT3 ( * Nl5main_tmp3 1 ) ) ( * ( + 0 Nl5main_id3 ) main_id ) ( * ( + 0 Nl5main_maxId3 ) main_maxId ) ( * ( + 0 ( * Nl5main_tmp3 1 ) ) undef4 ) ) 0 ) ))
(assert ( or ( and ( and ( and ( >= lam18n0 0 ) ( >= lam18n1 0 ) ( >= lam18n2 0 ) ( >= lam18n4 0 ) ( >= lam18n5 0 ) ( >= lam18n6 0 ) ( > ( + ( * 1 lam18n1 ) ( * ( - 1 ) lam18n2 ) ( * ( - 1 ) lam18n3 ) ( * Nl5CT1 lam18n4 ) ( * Nl5CT2 lam18n5 ) ( * Nl5CT3 lam18n6 ) ( - 1 ( - ( + RFN1_CT ( * RFN1_main_tmp 1 ) ) RFN1_CT ) ) ) 0 ) ( = ( + ( * ( - 1 ) lam18n1 ) ( * 1 lam18n2 ) ( * Nl5main_id1 lam18n4 ) ( * Nl5main_id2 lam18n5 ) ( * Nl5main_id3 lam18n6 ) ( - ( - ( + 0 RFN1_main_id ) RFN1_main_id ) ) ) 0 ) ( = ( + ( * ( - 1 ) lam18n0 ) ( * ( - 1 ) lam18n2 ) ( * Nl5main_maxId1 lam18n4 ) ( * Nl5main_maxId2 lam18n5 ) ( * Nl5main_maxId3 lam18n6 ) ( - ( - ( + 0 RFN1_main_maxId ) RFN1_main_maxId ) ) ) 0 ) ( = ( + ( * 1 lam18n0 ) ( * 1 lam18n1 ) ( * Nl5main_tmp1 lam18n4 ) ( * Nl5main_tmp2 lam18n5 ) ( * Nl5main_tmp3 lam18n6 ) ( - ( - ( + 0 ( * RFN1_main_tmp 1 ) ) RFN1_main_tmp ) ) ) 0 ) ( = ( * 1 lam18n3 ) 0 ) ) ( and ( >= lam22n0 0 ) ( >= lam22n1 0 ) ( >= lam22n2 0 ) ( >= lam22n4 0 ) ( >= lam22n5 0 ) ( >= lam22n6 0 ) ( > ( + ( * 1 lam22n1 ) ( * ( - 1 ) lam22n2 ) ( * ( - 1 ) lam22n3 ) ( * Nl5CT1 lam22n4 ) ( * Nl5CT2 lam22n5 ) ( * Nl5CT3 lam22n6 ) ( - 1 ( - ( + RFN1_CT ( * RFN1_main_tmp 1 ) ) RFN1_CT ) ) ) 0 ) ( = ( + ( * 1 lam22n1 ) ( * 1 lam22n2 ) ( * Nl5main_id1 lam22n4 ) ( * Nl5main_id2 lam22n5 ) ( * Nl5main_id3 lam22n6 ) ( - ( - ( + 0 RFN1_main_id ) RFN1_main_id ) ) ) 0 ) ( = ( + ( * ( - 1 ) lam22n0 ) ( * ( - 1 ) lam22n2 ) ( * Nl5main_maxId1 lam22n4 ) ( * Nl5main_maxId2 lam22n5 ) ( * Nl5main_maxId3 lam22n6 ) ( - ( - ( + 0 RFN1_main_maxId ) RFN1_main_maxId ) ) ) 0 ) ( = ( + ( * 1 lam22n0 ) ( * ( - 1 ) lam22n1 ) ( * Nl5main_tmp1 lam22n4 ) ( * Nl5main_tmp2 lam22n5 ) ( * Nl5main_tmp3 lam22n6 ) ( - ( - ( + 0 ( * RFN1_main_tmp 1 ) ) RFN1_main_tmp ) ) ) 0 ) ( = ( * 1 lam22n3 ) 0 ) ) ( and ( >= lam26n0 0 ) ( >= lam26n1 0 ) ( >= lam26n2 0 ) ( >= lam26n4 0 ) ( >= lam26n5 0 ) ( >= lam26n6 0 ) ( > ( + ( * 1 lam26n0 ) ( * 1 lam26n1 ) ( * ( - 1 ) lam26n2 ) ( * ( - 1 ) lam26n3 ) ( * Nl5CT1 lam26n4 ) ( * Nl5CT2 lam26n5 ) ( * Nl5CT3 lam26n6 ) ( - 1 ( - ( + RFN1_CT ( * RFN1_main_tmp 0 ) ) RFN1_CT ) ) ) 0 ) ( = ( + ( * 1 lam26n0 ) ( * 1 lam26n2 ) ( * Nl5main_id1 lam26n4 ) ( * Nl5main_id2 lam26n5 ) ( * Nl5main_id3 lam26n6 ) ( - ( - ( + 0 RFN1_main_id ) RFN1_main_id ) ) ) 0 ) ( = ( + ( * 1 lam26n1 ) ( * ( - 1 ) lam26n2 ) ( * Nl5main_maxId1 lam26n4 ) ( * Nl5main_maxId2 lam26n5 ) ( * Nl5main_maxId3 lam26n6 ) ( - ( - ( + 0 RFN1_main_maxId ) RFN1_main_maxId ) ) ) 0 ) ( = ( + ( * ( - 1 ) lam26n0 ) ( * ( - 1 ) lam26n1 ) ( * Nl5main_tmp1 lam26n4 ) ( * Nl5main_tmp2 lam26n5 ) ( * Nl5main_tmp3 lam26n6 ) ( - ( - RFN1_main_tmp ) ) ) 0 ) ( = ( * 1 lam26n3 ) 0 ) ) ) ( or ( and ( and ( >= lam16n0 0 ) ( >= lam16n1 0 ) ( >= lam16n2 0 ) ( >= lam16n4 0 ) ( >= lam16n5 0 ) ( >= lam16n6 0 ) ( > ( + ( * 1 lam16n1 ) ( * ( - 1 ) lam16n2 ) ( * ( - 1 ) lam16n3 ) ( * Nl5CT1 lam16n4 ) ( * Nl5CT2 lam16n5 ) ( * Nl5CT3 lam16n6 ) ( - 1 ( - RFN1_CT ) ) ) 0 ) ( = ( + ( * ( - 1 ) lam16n1 ) ( * 1 lam16n2 ) ( * Nl5main_id1 lam16n4 ) ( * Nl5main_id2 lam16n5 ) ( * Nl5main_id3 lam16n6 ) ( - ( - RFN1_main_id ) ) ) 0 ) ( = ( + ( * ( - 1 ) lam16n0 ) ( * ( - 1 ) lam16n2 ) ( * Nl5main_maxId1 lam16n4 ) ( * Nl5main_maxId2 lam16n5 ) ( * Nl5main_maxId3 lam16n6 ) ( - ( - RFN1_main_maxId ) ) ) 0 ) ( = ( + ( * 1 lam16n0 ) ( * 1 lam16n1 ) ( * Nl5main_tmp1 lam16n4 ) ( * Nl5main_tmp2 lam16n5 ) ( * Nl5main_tmp3 lam16n6 ) ( - ( - RFN1_main_tmp ) ) ) 0 ) ( = ( * 1 lam16n3 ) 0 ) ) ( and ( >= lam17n0 0 ) ( >= lam17n1 0 ) ( >= lam17n2 0 ) ( >= lam17n4 0 ) ( >= lam17n5 0 ) ( >= lam17n6 0 ) ( > ( + ( * 1 lam17n1 ) ( * ( - 1 ) lam17n2 ) ( * ( - 1 ) lam17n3 ) ( * Nl5CT1 lam17n4 ) ( * Nl5CT2 lam17n5 ) ( * Nl5CT3 lam17n6 ) ( - 1 ( + ( - ( + RFN1_CT ( * RFN1_main_tmp 1 ) ) RFN1_CT ) 1 ) ) ) 0 ) ( = ( + ( * ( - 1 ) lam17n1 ) ( * 1 lam17n2 ) ( * Nl5main_id1 lam17n4 ) ( * Nl5main_id2 lam17n5 ) ( * Nl5main_id3 lam17n6 ) ( - ( - ( + 0 RFN1_main_id ) RFN1_main_id ) ) ) 0 ) ( = ( + ( * ( - 1 ) lam17n0 ) ( * ( - 1 ) lam17n2 ) ( * Nl5main_maxId1 lam17n4 ) ( * Nl5main_maxId2 lam17n5 ) ( * Nl5main_maxId3 lam17n6 ) ( - ( - ( + 0 RFN1_main_maxId ) RFN1_main_maxId ) ) ) 0 ) ( = ( + ( * 1 lam17n0 ) ( * 1 lam17n1 ) ( * Nl5main_tmp1 lam17n4 ) ( * Nl5main_tmp2 lam17n5 ) ( * Nl5main_tmp3 lam17n6 ) ( - ( - ( + 0 ( * RFN1_main_tmp 1 ) ) RFN1_main_tmp ) ) ) 0 ) ( = ( * 1 lam17n3 ) 0 ) ) ) ( and ( and ( >= lam20n0 0 ) ( >= lam20n1 0 ) ( >= lam20n2 0 ) ( >= lam20n4 0 ) ( >= lam20n5 0 ) ( >= lam20n6 0 ) ( > ( + ( * 1 lam20n1 ) ( * ( - 1 ) lam20n2 ) ( * ( - 1 ) lam20n3 ) ( * Nl5CT1 lam20n4 ) ( * Nl5CT2 lam20n5 ) ( * Nl5CT3 lam20n6 ) ( - 1 ( - RFN1_CT ) ) ) 0 ) ( = ( + ( * 1 lam20n1 ) ( * 1 lam20n2 ) ( * Nl5main_id1 lam20n4 ) ( * Nl5main_id2 lam20n5 ) ( * Nl5main_id3 lam20n6 ) ( - ( - RFN1_main_id ) ) ) 0 ) ( = ( + ( * ( - 1 ) lam20n0 ) ( * ( - 1 ) lam20n2 ) ( * Nl5main_maxId1 lam20n4 ) ( * Nl5main_maxId2 lam20n5 ) ( * Nl5main_maxId3 lam20n6 ) ( - ( - RFN1_main_maxId ) ) ) 0 ) ( = ( + ( * 1 lam20n0 ) ( * ( - 1 ) lam20n1 ) ( * Nl5main_tmp1 lam20n4 ) ( * Nl5main_tmp2 lam20n5 ) ( * Nl5main_tmp3 lam20n6 ) ( - ( - RFN1_main_tmp ) ) ) 0 ) ( = ( * 1 lam20n3 ) 0 ) ) ( and ( >= lam21n0 0 ) ( >= lam21n1 0 ) ( >= lam21n2 0 ) ( >= lam21n4 0 ) ( >= lam21n5 0 ) ( >= lam21n6 0 ) ( > ( + ( * 1 lam21n1 ) ( * ( - 1 ) lam21n2 ) ( * ( - 1 ) lam21n3 ) ( * Nl5CT1 lam21n4 ) ( * Nl5CT2 lam21n5 ) ( * Nl5CT3 lam21n6 ) ( - 1 ( + ( - ( + RFN1_CT ( * RFN1_main_tmp 1 ) ) RFN1_CT ) 1 ) ) ) 0 ) ( = ( + ( * 1 lam21n1 ) ( * 1 lam21n2 ) ( * Nl5main_id1 lam21n4 ) ( * Nl5main_id2 lam21n5 ) ( * Nl5main_id3 lam21n6 ) ( - ( - ( + 0 RFN1_main_id ) RFN1_main_id ) ) ) 0 ) ( = ( + ( * ( - 1 ) lam21n0 ) ( * ( - 1 ) lam21n2 ) ( * Nl5main_maxId1 lam21n4 ) ( * Nl5main_maxId2 lam21n5 ) ( * Nl5main_maxId3 lam21n6 ) ( - ( - ( + 0 RFN1_main_maxId ) RFN1_main_maxId ) ) ) 0 ) ( = ( + ( * 1 lam21n0 ) ( * ( - 1 ) lam21n1 ) ( * Nl5main_tmp1 lam21n4 ) ( * Nl5main_tmp2 lam21n5 ) ( * Nl5main_tmp3 lam21n6 ) ( - ( - ( + 0 ( * RFN1_main_tmp 1 ) ) RFN1_main_tmp ) ) ) 0 ) ( = ( * 1 lam21n3 ) 0 ) ) ) ( and ( and ( >= lam24n0 0 ) ( >= lam24n1 0 ) ( >= lam24n2 0 ) ( >= lam24n4 0 ) ( >= lam24n5 0 ) ( >= lam24n6 0 ) ( > ( + ( * 1 lam24n0 ) ( * 1 lam24n1 ) ( * ( - 1 ) lam24n2 ) ( * ( - 1 ) lam24n3 ) ( * Nl5CT1 lam24n4 ) ( * Nl5CT2 lam24n5 ) ( * Nl5CT3 lam24n6 ) ( - 1 ( - RFN1_CT ) ) ) 0 ) ( = ( + ( * 1 lam24n0 ) ( * 1 lam24n2 ) ( * Nl5main_id1 lam24n4 ) ( * Nl5main_id2 lam24n5 ) ( * Nl5main_id3 lam24n6 ) ( - ( - RFN1_main_id ) ) ) 0 ) ( = ( + ( * 1 lam24n1 ) ( * ( - 1 ) lam24n2 ) ( * Nl5main_maxId1 lam24n4 ) ( * Nl5main_maxId2 lam24n5 ) ( * Nl5main_maxId3 lam24n6 ) ( - ( - RFN1_main_maxId ) ) ) 0 ) ( = ( + ( * ( - 1 ) lam24n0 ) ( * ( - 1 ) lam24n1 ) ( * Nl5main_tmp1 lam24n4 ) ( * Nl5main_tmp2 lam24n5 ) ( * Nl5main_tmp3 lam24n6 ) ( - ( - RFN1_main_tmp ) ) ) 0 ) ( = ( * 1 lam24n3 ) 0 ) ) ( and ( >= lam25n0 0 ) ( >= lam25n1 0 ) ( >= lam25n2 0 ) ( >= lam25n4 0 ) ( >= lam25n5 0 ) ( >= lam25n6 0 ) ( > ( + ( * 1 lam25n0 ) ( * 1 lam25n1 ) ( * ( - 1 ) lam25n2 ) ( * ( - 1 ) lam25n3 ) ( * Nl5CT1 lam25n4 ) ( * Nl5CT2 lam25n5 ) ( * Nl5CT3 lam25n6 ) ( - 1 ( + ( - ( + RFN1_CT ( * RFN1_main_tmp 0 ) ) RFN1_CT ) 1 ) ) ) 0 ) ( = ( + ( * 1 lam25n0 ) ( * 1 lam25n2 ) ( * Nl5main_id1 lam25n4 ) ( * Nl5main_id2 lam25n5 ) ( * Nl5main_id3 lam25n6 ) ( - ( - ( + 0 RFN1_main_id ) RFN1_main_id ) ) ) 0 ) ( = ( + ( * 1 lam25n1 ) ( * ( - 1 ) lam25n2 ) ( * Nl5main_maxId1 lam25n4 ) ( * Nl5main_maxId2 lam25n5 ) ( * Nl5main_maxId3 lam25n6 ) ( - ( - ( + 0 RFN1_main_maxId ) RFN1_main_maxId ) ) ) 0 ) ( = ( + ( * ( - 1 ) lam25n0 ) ( * ( - 1 ) lam25n1 ) ( * Nl5main_tmp1 lam25n4 ) ( * Nl5main_tmp2 lam25n5 ) ( * Nl5main_tmp3 lam25n6 ) ( - ( - RFN1_main_tmp ) ) ) 0 ) ( = ( * 1 lam25n3 ) 0 ) ) ) ) ) ( or ( and ( >= lam15n0 0 ) ( >= lam15n1 0 ) ( >= lam15n2 0 ) ( >= lam15n4 0 ) ( >= lam15n5 0 ) ( >= lam15n6 0 ) ( > ( + ( * 1 lam15n1 ) ( * ( - 1 ) lam15n2 ) ( * ( - 1 ) lam15n3 ) ( * Nl5CT1 lam15n4 ) ( * Nl5CT2 lam15n5 ) ( * Nl5CT3 lam15n6 ) ( - 1 ) ) 0 ) ( = ( + ( * ( - 1 ) lam15n1 ) ( * 1 lam15n2 ) ( * Nl5main_id1 lam15n4 ) ( * Nl5main_id2 lam15n5 ) ( * Nl5main_id3 lam15n6 ) ) 0 ) ( = ( + ( * ( - 1 ) lam15n0 ) ( * ( - 1 ) lam15n2 ) ( * Nl5main_maxId1 lam15n4 ) ( * Nl5main_maxId2 lam15n5 ) ( * Nl5main_maxId3 lam15n6 ) ) 0 ) ( = ( + ( * 1 lam15n0 ) ( * 1 lam15n1 ) ( * Nl5main_tmp1 lam15n4 ) ( * Nl5main_tmp2 lam15n5 ) ( * Nl5main_tmp3 lam15n6 ) ) 0 ) ( = ( * 1 lam15n3 ) 0 ) ) ( and ( >= lam19n0 0 ) ( >= lam19n1 0 ) ( >= lam19n2 0 ) ( >= lam19n4 0 ) ( >= lam19n5 0 ) ( >= lam19n6 0 ) ( > ( + ( * 1 lam19n1 ) ( * ( - 1 ) lam19n2 ) ( * ( - 1 ) lam19n3 ) ( * Nl5CT1 lam19n4 ) ( * Nl5CT2 lam19n5 ) ( * Nl5CT3 lam19n6 ) ( - 1 ) ) 0 ) ( = ( + ( * 1 lam19n1 ) ( * 1 lam19n2 ) ( * Nl5main_id1 lam19n4 ) ( * Nl5main_id2 lam19n5 ) ( * Nl5main_id3 lam19n6 ) ) 0 ) ( = ( + ( * ( - 1 ) lam19n0 ) ( * ( - 1 ) lam19n2 ) ( * Nl5main_maxId1 lam19n4 ) ( * Nl5main_maxId2 lam19n5 ) ( * Nl5main_maxId3 lam19n6 ) ) 0 ) ( = ( + ( * 1 lam19n0 ) ( * ( - 1 ) lam19n1 ) ( * Nl5main_tmp1 lam19n4 ) ( * Nl5main_tmp2 lam19n5 ) ( * Nl5main_tmp3 lam19n6 ) ) 0 ) ( = ( * 1 lam19n3 ) 0 ) ) ( and ( >= lam23n0 0 ) ( >= lam23n1 0 ) ( >= lam23n2 0 ) ( >= lam23n4 0 ) ( >= lam23n5 0 ) ( >= lam23n6 0 ) ( > ( + ( * 1 lam23n0 ) ( * 1 lam23n1 ) ( * ( - 1 ) lam23n2 ) ( * ( - 1 ) lam23n3 ) ( * Nl5CT1 lam23n4 ) ( * Nl5CT2 lam23n5 ) ( * Nl5CT3 lam23n6 ) ( - 1 ) ) 0 ) ( = ( + ( * 1 lam23n0 ) ( * 1 lam23n2 ) ( * Nl5main_id1 lam23n4 ) ( * Nl5main_id2 lam23n5 ) ( * Nl5main_id3 lam23n6 ) ) 0 ) ( = ( + ( * 1 lam23n1 ) ( * ( - 1 ) lam23n2 ) ( * Nl5main_maxId1 lam23n4 ) ( * Nl5main_maxId2 lam23n5 ) ( * Nl5main_maxId3 lam23n6 ) ) 0 ) ( = ( + ( * ( - 1 ) lam23n0 ) ( * ( - 1 ) lam23n1 ) ( * Nl5main_tmp1 lam23n4 ) ( * Nl5main_tmp2 lam23n5 ) ( * Nl5main_tmp3 lam23n6 ) ) 0 ) ( = ( * 1 lam23n3 ) 0 ) ) ) ))
(check-sat)
(exit)
